c Random generated cnf formula, satisfiable: false
p cnf 10 50
3 7 -10 0
3 5 4 0
-7 -8 -1 0
-7 -9 8 0
-7 2 -9 0
7 -9 -8 0
2 8 6 0
6 3 -8 0
-9 2 -5 0
4 -6 -5 0
-2 -4 8 0
9 1 7 0
-5 10 -2 0
-1 -4 5 0
-5 -9 -4 0
-7 -3 10 0
-7 6 -3 0
-1 6 -10 0
-3 8 -5 0
9 10 6 0
8 -10 5 0
-2 10 -8 0
-3 10 -2 0
1 -8 9 0
7 -6 -5 0
1 2 -8 0
4 -5 -3 0
8 -4 -9 0
-9 10 6 0
-10 -6 5 0
1 -5 6 0
10 -4 3 0
-2 3 -1 0
8 2 -3 0
2 6 -10 0
-6 9 4 0
-8 -4 -1 0
4 9 1 0
10 9 -3 0
-7 -5 2 0
-2 1 -10 0
-9 -2 -7 0
-2 -1 10 0
8 -6 2 0
1 -8 9 0
-4 3 -8 0
-4 -10 -2 0
6 -1 -10 0
-5 -3 -6 0
-8 -3 2 0
